(set-logic ALL)
(declare-fun var0 () String)
(assert (str.in_re var0 (re.++ (re.union (re.* (str.to_re "000")) (re.* (str.to_re "111"))) (re.++ (re.union (re.* (str.to_re "222")) (re.* (str.to_re "33"))) (re.++ (re.* (re.union (str.to_re "4") (str.to_re "55"))) (re.++ (re.+ (re.union (str.to_re "66") (str.to_re "7"))) (re.++ (re.union (re.union (str.to_re "888") (str.to_re "99")) (re.union (str.to_re "a") (str.to_re "bbb"))) (re.++ (re.union (re.union (str.to_re "c") (str.to_re "ddd")) (re.union (str.to_re "e") (str.to_re "fff"))) (re.++ (re.union (re.+ (str.to_re "gg")) (re.+ (str.to_re "hhh"))) (re.++ (re.+ (re.+ (str.to_re "iii"))) (re.++ (re.+ (re.+ (str.to_re "jj"))) (re.++ (re.union (re.union (str.to_re "kkk") (str.to_re "lll")) (re.union (str.to_re "mmm") (str.to_re "nn"))) (re.++ (re.union (re.+ (str.to_re "oo")) (re.+ (str.to_re "ppp"))) (re.++ (re.union (re.+ (str.to_re "qqq")) (re.+ (str.to_re "rr"))) (re.++ (re.+ (re.+ (str.to_re "ss"))) (re.++ (re.+ (re.+ (str.to_re "t"))) (re.++ (re.* (re.union (str.to_re "uu") (str.to_re "vv"))) (re.++ (re.+ (re.+ (str.to_re "ww"))) (re.++ (re.+ (re.* (str.to_re "x"))) (re.++ (re.* (re.+ (str.to_re "yyy"))) (re.++ (re.+ (re.+ (str.to_re "z"))) (re.++ (re.+ (re.union (str.to_re "AA") (str.to_re "B"))) (re.++ (re.+ (re.+ (str.to_re "C"))) (re.++ (re.* (re.+ (str.to_re "D"))) (re.++ (re.* (re.* (str.to_re "E"))) (re.++ (re.* (re.+ (str.to_re "F"))) (re.++ (re.+ (re.union (str.to_re "GGG") (str.to_re "HHH"))) (re.++ (re.* (re.+ (str.to_re "III"))) (re.++ (re.+ (re.* (str.to_re "JJ"))) (re.++ (re.* (re.+ (str.to_re "KK"))) (re.++ (re.+ (re.+ (str.to_re "LL"))) (re.++ (re.union (re.+ (str.to_re "MM")) (re.+ (str.to_re "NN"))) (re.++ (re.* (re.union (str.to_re "O") (str.to_re "P"))) (re.++ (re.union (re.+ (str.to_re "QQQ")) (re.+ (str.to_re "RRR"))) (re.++ (re.* (re.* (str.to_re "SSS"))) (re.++ (re.union (re.* (str.to_re "TTT")) (re.* (str.to_re "UUU"))) (re.++ (re.+ (re.* (str.to_re "VV"))) (re.++ (re.union (re.union (str.to_re "W") (str.to_re "XXX")) (re.union (str.to_re "YYY") (str.to_re "ZZ"))) (re.++ (re.* (re.* (str.to_re "!!!"))) (re.++ (re.* (re.* (str.to_re """"""))) (re.++ (re.* (re.* (str.to_re "##"))) (re.++ (re.+ (re.* (str.to_re "$"))) (re.++ (re.+ (re.+ (str.to_re "%%%"))) (re.++ (re.* (re.* (str.to_re "&&&"))) (re.++ (re.+ (re.* (str.to_re "'''"))) (re.++ (re.* (re.* (str.to_re "(("))) (re.++ (re.+ (re.union (str.to_re ")))") (str.to_re "**"))) (re.+ (re.+ (str.to_re "++"))))))))))))))))))))))))))))))))))))))))))))))))))
(assert (not (str.in_re var0 (re.++ (re.* (re.* (str.to_re "00"))) (re.++ (re.union (re.union (str.to_re "11") (str.to_re "2")) (re.union (str.to_re "333") (str.to_re "444"))) (re.++ (re.* (re.+ (str.to_re "55"))) (re.++ (re.union (re.+ (str.to_re "66")) (re.+ (str.to_re "77"))) (re.++ (re.* (re.union (str.to_re "8") (str.to_re "99"))) (re.++ (re.* (re.* (str.to_re "a"))) (re.++ (re.union (re.* (str.to_re "b")) (re.* (str.to_re "cc"))) (re.++ (re.union (re.+ (str.to_re "ddd")) (re.+ (str.to_re "eee"))) (re.++ (re.union (re.union (str.to_re "ff") (str.to_re "g")) (re.union (str.to_re "hhh") (str.to_re "i"))) (re.++ (re.union (re.union (str.to_re "j") (str.to_re "kk")) (re.union (str.to_re "l") (str.to_re "m"))) (re.++ (re.+ (re.+ (str.to_re "n"))) (re.++ (re.* (re.+ (str.to_re "o"))) (re.++ (re.* (re.union (str.to_re "p") (str.to_re "qq"))) (re.++ (re.+ (re.* (str.to_re "rr"))) (re.++ (re.union (re.union (str.to_re "sss") (str.to_re "ttt")) (re.union (str.to_re "uuu") (str.to_re "v"))) (re.++ (re.+ (re.* (str.to_re "w"))) (re.++ (re.union (re.+ (str.to_re "x")) (re.+ (str.to_re "yy"))) (re.++ (re.* (re.* (str.to_re "zzz"))) (re.++ (re.+ (re.* (str.to_re "AA"))) (re.++ (re.+ (re.union (str.to_re "BBB") (str.to_re "CCC"))) (re.++ (re.* (re.union (str.to_re "D") (str.to_re "EE"))) (re.++ (re.union (re.+ (str.to_re "FF")) (re.+ (str.to_re "GG"))) (re.++ (re.+ (re.* (str.to_re "HH"))) (re.++ (re.+ (re.union (str.to_re "III") (str.to_re "JJJ"))) (re.++ (re.union (re.* (str.to_re "K")) (re.* (str.to_re "LL"))) (re.++ (re.+ (re.+ (str.to_re "MMM"))) (re.++ (re.union (re.+ (str.to_re "NNN")) (re.+ (str.to_re "O"))) (re.++ (re.+ (re.+ (str.to_re "P"))) (re.++ (re.union (re.union (str.to_re "QQ") (str.to_re "RRR")) (re.union (str.to_re "SS") (str.to_re "TTT"))) (re.++ (re.union (re.union (str.to_re "U") (str.to_re "V")) (re.union (str.to_re "W") (str.to_re "X"))) (re.++ (re.union (re.union (str.to_re "YY") (str.to_re "ZZZ")) (re.union (str.to_re "!!!") (str.to_re """"""""))) (re.++ (re.+ (re.union (str.to_re "##") (str.to_re "$$"))) (re.++ (re.+ (re.union (str.to_re "%") (str.to_re "&&"))) (re.++ (re.+ (re.union (str.to_re "''") (str.to_re "((("))) (re.++ (re.* (re.* (str.to_re ")"))) (re.++ (re.union (re.+ (str.to_re "***")) (re.+ (str.to_re "+"))) (re.++ (re.union (re.* (str.to_re ",,")) (re.* (str.to_re "-"))) (re.++ (re.+ (re.union (str.to_re "...") (str.to_re "//"))) (re.++ (re.* (re.union (str.to_re ":::") (str.to_re ";;;"))) (re.++ (re.union (re.union (str.to_re "<<<") (str.to_re "=")) (re.union (str.to_re ">>>") (str.to_re "??"))) (re.++ (re.* (re.* (str.to_re "@"))) (re.++ (re.union (re.+ (str.to_re "[")) (re.+ (str.to_re "\\"))) (re.++ (re.+ (re.* (str.to_re "]]"))) (re.++ (re.* (re.* (str.to_re "^^^"))) (re.++ (re.+ (re.+ (str.to_re "__"))) (re.* (re.union (str.to_re "`") (str.to_re "{{{")))))))))))))))))))))))))))))))))))))))))))))))))))
(check-sat)